66 50 
67 94 
19 72 
34 16 
0 13 
10 92 
23 12 
55 65 
68 30 
54 10 
83 32 
43 62 
71 48 
4 47 
91 77 
58 10 
27 77 
4 98 
50 90 
14 50 
55 76 
42 31 
41 98 
96 9 
28 2 
72 64 
87 15 
26 58 
16 83 
57 7 
60 15 
17 39 
93 74 
37 43 
64 4 
45 20 
80 88 
51 21 
38 99 
83 18 
54 55 
82 93 
22 61 
3 38 
96 61 
98 8 
76 67 
99 21 
41 88 
16 58 
